%nprocshared=2
# hf/6-31g geom=connectivity

Title Card Required

0 1
 O                  0.00000000    0.00000000    0.00000000
 H                  0.00435105    0.00000000    0.95705552
 H                 -0.88313224    0.02086526   -0.34534762

 1 2 1.0 3 1.0
 2
 3

