%nproc=4
%mem=8GB
#HF /6-31G(d) SP

Water Optimization

0 1
O 0.0 0.0 0.0
H 0.75716 0.586799 0.0
H -0.75716 0.586799 0.0
