 &CONTROL
    prefix='silicon',
    pseudo_dir = './',
    outdir     ='./',
    calculation = 'relax'  
    ! relax: only the atomic positions  
    ! vc-relax: both atomic positions and lattice constants
 /

 &SYSTEM    
    ibrav = 0,
    nat = 64,
    ntyp = 1,
    ecutwfc = 35.0, 
    ecutrho = 140.0,
 /
 
 &ELECTRONS
    conv_thr=1d-06
 /

 &IONS 
/


ATOMIC_SPECIES
   Si  28.086  Si.pz-vbc.UPF
   
ATOMIC_POSITIONS angstrom
   Si 0.000 0.000 0.000
   Si 1.358 1.358 1.358
   Si 0.000 2.715 2.715
   Si 1.358 4.073 4.073
   Si 2.715 0.000 2.715
   Si 4.073 1.358 4.073
   Si 2.715 2.715 0.000
   Si 4.073 4.073 1.358
   Si 0.000 0.000 5.431
   Si 1.358 1.358 6.789
   Si 0.000 2.715 8.146
   Si 1.358 4.073 9.504
   Si 2.715 0.000 8.146
   Si 4.073 1.358 9.504
   Si 2.715 2.715 5.431
   Si 4.073 4.073 6.789
   Si 0.000 5.431 0.000
   Si 1.358 6.789 1.358
   Si 0.000 8.146 2.715
   Si 1.358 9.504 4.073
   Si 2.715 5.431 2.715
   Si 4.073 6.789 4.073
   Si 2.715 8.146 0.000
   Si 4.073 9.504 1.358
   Si 0.000 5.431 5.431
   Si 1.358 6.789 6.789 
   Si 0.000 8.146 8.146
   Si 1.358 9.504 9.504
   Si 2.715 5.431 8.146
   Si 4.073 6.789 9.504
   Si 2.715 8.146 5.431
   Si 4.073 9.504 6.789 
   Si 5.431 0.000 0.000
   Si 6.789 1.358 1.358
   Si 5.431 2.715 2.715
   Si 6.789 4.073 4.073
   Si 8.146 0.000 2.715
   Si 9.504 1.358 4.073
   Si 8.146 2.715 0.000
   Si 9.504 4.073 1.358
   Si 5.431 0.000 5.431
   Si 6.789 1.358 6.789
   Si 5.431 2.715 8.146
   Si 6.789 4.073 9.504
   Si 8.146 0.000 8.146
   Si 9.504 1.358 9.504
   Si 8.146 2.715 5.431
   Si 9.504 4.073 6.789 
   Si 5.431 5.431 0.000
   Si 6.789 6.789 1.358
   Si 5.431 8.146 2.715
   Si 6.789 9.504 4.073
   Si 8.146 5.431 2.715
   Si 9.504 6.789 4.073
   Si 8.146 8.146 0.000
   Si 9.504 9.504 1.358 
   Si 5.431 5.431 5.431
   Si 6.789 6.789 6.789
   Si 5.431 8.146 8.146
   Si 6.789 9.504 9.504
   Si 8.146 5.431 8.146
   Si 9.504 6.789 9.504
   Si 8.146 8.146 5.431
   Si 9.504 9.504 6.789
 
   ! this is a comment 

#K_POINTS tpiba
# this is also a comment: next line, number of k-points
# 2
# 0.25 0.25 0.25  1.0
# 0.25 0.25 0.75  3.0

K_POINTS automatic
   1 1 1   1 1 1