 &CONTROL
    prefix='aluminium',
    pseudo_dir ='./',
    outdir     ='./',
 /

 &SYSTEM    
    ibrav = 2,
    celldm(1) = 7.6533902,
    nat =  1,
    ntyp = 1,
    ecutwfc = 35.0, 
    ecutrho = 140.0,
 /
 
 &ELECTRONS
    conv_thr=1d-06,
 /

ATOMIC_SPECIES
   Al  26.981539  Al-fcc.pz-vbc.UPF
   
ATOMIC_POSITIONS alat
   Al 0.25 0.25 0.25 
   ! this is a comment 

#K_POINTS tpiba
# this is also a comment: next line, number of k-points
# 2
# 0.25 0.25 0.25  1.0
# 0.25 0.25 0.75  3.0

K_POINTS automatic
   4 4 4   1 1 1 
