 &CONTROL
    prefix='polonium'
    pseudo_dir ='./',
    outdir     ='./',
 /

 &SYSTEM    
    ibrav = 1,
    celldm(1) = 5.34,
    nat =  1,
    ntyp = 1,
    ecutwfc = 20.0, 
    ecutrho = 80.0,
 /
 
 &ELECTRONS
    conv_thr=1d-06,
 /

ATOMIC_SPECIES
   Po  209  Po-simple_cubic.pz-vbc.UPF
   
ATOMIC_POSITIONS alat
   Po 0.00 0.00 0.00 
   ! this is a comment 

#K_POINTS tpiba
# this is also a comment: next line, number of k-points
# 2
# 0.25 0.25 0.25  1.0
# 0.25 0.25 0.75  3.0

K_POINTS automatic
   4 4 4   1 1 1 
